db/data/652091051133768631666282313082070.z3.out
-------------------
2500.125467727
